;; Mutation-Based Equivalence Benchmark
;; Source:     AutomatArk / instance03711.smt2
;; Mutations:  opt_to_required, bound_upper_inc
;; Status:     sat
;;
;; Original regex vs mutated regex
;; Equivalence check: unsat ⟺ L(R1) = L(R2)

(set-info :smt-lib-version 2.6)
(set-info :category "mutation")
(set-info :status sat)
(set-logic QF_S)


;; R1: original
;; R2: mutated (opt_to_required, bound_upper_inc)
(assert
  (not
    (=
      (re.++ (str.to_re "\u{a}") ((_ re.loop 2 2) (re.range "A" "Z")) (re.opt (re.union (str.to_re " ") (str.to_re "\u{9}") (str.to_re "\u{a}") (str.to_re "\u{c}") (str.to_re "\u{d}"))) (re.opt ((_ re.loop 2 2) (re.range "0" "9"))) (re.opt (str.to_re "-")) (re.opt (re.union ((_ re.loop 1 1) (re.range "A" "Z")) ((_ re.loop 1 1) (re.range "0" "9")))) (re.opt (re.union ((_ re.loop 1 1) (re.range "A" "Z")) ((_ re.loop 1 1) (re.range "0" "9")))) (re.opt (str.to_re " ")) ((_ re.loop 4 4) (re.range "0" "9")))
      (re.++ (str.to_re "\u{a}") ((_ re.loop 2 2) (re.range "A" "Z")) (re.opt (re.union (str.to_re " ") (str.to_re "\u{9}") (str.to_re "\u{a}") (str.to_re "\u{c}") (str.to_re "\u{d}"))) (re.opt ((_ re.loop 2 3) (re.range "0" "9"))) (re.opt (str.to_re "-")) re.union ((_ re.loop 1 1) (re.range "A" "Z")) ((_ re.loop 1 1) (re.range "0" "9"))))))

(check-sat)
(exit)
